1787
1369
2412
2341
3466
909
1818
2195
1806
734
3095
1704
3389
1916
785
1623
571
902
1062
1869
3033
3235
1031
934
3400
2243
642
1229
308
2787
3752
1665
2143
430
1745
646
3491
971
2471
3455
1203
1916
3421
1273
2842
1634
2600
945
1099
1579
2901
2426
3827
2685
2956
939
2456
2012
3428
1079

34109
17460
39153
35519
69946
15167
23244
40317
39011
1975

967
495
1110
1007
1983
430
659
1143
1106
56

2686.8

68
35
78
71
139
31
47
81
78
4
124
65
122
62
4
67
16
34
41
72
126
129
42
29
148
77
5
38
12
115
142
77
106
15
72
14
133
35
83
129
35
46
147
16
93
76
85
43
50
48
137
112
150
118
143
39
97
88
145
46
